(declare-fun var0 () String)
(declare-fun var1 () String)
(declare-fun var2 () String)
(declare-fun var3 () String)
(declare-fun var4 () String)
(declare-fun var5 () String)
(declare-fun var6 () String)
(declare-fun var7 () String)
(declare-fun var8 () String)
(declare-fun var9 () String)
(declare-fun var10 () String)
(declare-fun var11 () String)
(declare-fun var12 () String)
(declare-fun var13 () String)
(declare-fun var14 () String)
(declare-fun var15 () String)
(declare-fun var16 () String)
(declare-fun var17 () String)
(declare-fun var18 () String)
(declare-fun var19 () String)
(declare-fun var20 () String)
(declare-fun var21 () String)
(declare-fun var22 () String)
(declare-fun var23 () String)
(declare-fun var24 () String)
(declare-fun var25 () String)
(declare-fun var26 () String)
(declare-fun var27 () String)
(declare-fun var28 () String)
(declare-fun var29 () String)
(declare-fun var30 () String)
(declare-fun var31 () String)
(declare-fun var32 () String)
(declare-fun var33 () String)
(declare-fun var34 () String)
(declare-fun var35 () String)
(declare-fun var36 () String)
(declare-fun var37 () String)
(declare-fun var38 () String)
(declare-fun var39 () String)
(declare-fun var40 () String)
(declare-fun var41 () String)
(declare-fun var42 () String)
(declare-fun var43 () String)
(declare-fun var44 () String)
(declare-fun var45 () String)
(declare-fun var46 () String)
(declare-fun var47 () String)
(declare-fun var48 () String)
(declare-fun var49 () String)
(declare-fun var50 () String)
(declare-fun var51 () String)
(declare-fun var52 () String)
(declare-fun var53 () String)
(declare-fun var54 () String)
(declare-fun var55 () String)
(declare-fun var56 () String)
(declare-fun var57 () String)
(declare-fun var58 () String)
(declare-fun var59 () String)
(declare-fun var60 () String)
(assert (= var0 (Concat var1 var2)))
(assert (= var2 (Concat var3 var4)))
(assert (= var4 (Concat var5 var6)))
(assert (= var6 (Concat var7 var8)))
(assert (= var8 (Concat var9 var10)))
(assert (= var10 (Concat var11 var12)))
(assert (= var12 (Concat var13 var14)))
(assert (= var14 (Concat var15 var16)))
(assert (= var16 (Concat var17 var18)))
(assert (= var18 (Concat var19 var20)))
(assert (= var20 (Concat var21 var22)))
(assert (= var22 (Concat var23 var24)))
(assert (= var24 (Concat var25 var26)))
(assert (= var26 (Concat var27 var28)))
(assert (= var28 (Concat var29 var30)))
(assert (= var30 (Concat var31 var32)))
(assert (= var32 (Concat var33 var34)))
(assert (= var34 (Concat var35 var36)))
(assert (= var36 (Concat var37 var38)))
(assert (= var38 (Concat var39 var40)))
(assert (= var40 (Concat var41 var42)))
(assert (= var42 (Concat var43 var44)))
(assert (= var44 (Concat var45 var46)))
(assert (= var46 (Concat var47 var48)))
(assert (= var48 (Concat var49 var50)))
(assert (= var50 (Concat var51 var52)))
(assert (= var52 (Concat var53 var54)))
(assert (= var54 (Concat var55 var56)))
(assert (= var56 (Concat var57 var58)))
(assert (= var58 (Concat var59 var60)))
(assert (= var0 "solution"))
(assert (= "I" (CharAt var8 652)))
(assert (= "?" (CharAt var13 898)))
(assert (= "F" (CharAt var37 907)))
(assert (= "F" (CharAt var42 798)))
(assert (= ")" (CharAt var9 831)))
(assert (= "]" (CharAt var60 445)))
(assert (= "m" (CharAt var27 800)))
(assert (= "v" (CharAt var53 724)))
(assert (= "X" (CharAt var28 806)))
(assert (= ">" (CharAt var10 470)))
(assert (= "I" (CharAt var11 778)))
(assert (= "^" (CharAt var57 105)))
(assert (= "G" (CharAt var38 375)))
(assert (= "p" (CharAt var5 162)))
(assert (= "T" (CharAt var19 372)))
(assert (= "|" (CharAt var59 204)))
(assert (= "s" (CharAt var6 603)))
(assert (= "," (CharAt var27 342)))
(assert (= "H" (CharAt var34 491)))
(assert (= "U" (CharAt var26 906)))
(assert (= "7" (CharAt var25 423)))
(assert (= "$" (CharAt var7 656)))
(assert (= "/" (CharAt var15 586)))
(assert (= "^" (CharAt var25 442)))
(assert (= "U" (CharAt var32 838)))
(assert (= "v" (CharAt var39 394)))
(assert (= "6" (CharAt var47 231)))
(assert (= "N" (CharAt var8 751)))
(assert (= "$" (CharAt var7 271)))
(assert (= "z" (CharAt var47 452)))
(assert (= "z" (CharAt var51 247)))
(assert (= "J" (CharAt var34 908)))
(assert (= "|" (CharAt var40 695)))
(assert (= "c" (CharAt var49 649)))
(assert (= "g" (CharAt var27 22)))
(assert (= "@" (CharAt var18 589)))
(assert (= "R" (CharAt var23 636)))
(assert (= "F" (CharAt var53 265)))
(assert (= "3" (CharAt var4 112)))
(assert (= "9" (CharAt var40 772)))
(assert (= "2" (CharAt var22 379)))
(assert (= "}" (CharAt var56 518)))
(assert (= "S" (CharAt var13 127)))
(assert (= "8" (CharAt var45 672)))
(assert (= "y" (CharAt var4 941)))
(assert (= "1" (CharAt var5 104)))
(assert (= "Q" (CharAt var36 330)))
(assert (= "v" (CharAt var17 795)))
(assert (= "-" (CharAt var53 361)))
(assert (= "#" (CharAt var38 366)))
(assert (= "r" (CharAt var6 633)))
(assert (= "u" (CharAt var54 412)))
(assert (= "r" (CharAt var26 433)))
(assert (= "j" (CharAt var59 880)))
(assert (= "j" (CharAt var17 675)))
(assert (= "o" (CharAt var47 737)))
(assert (= "q" (CharAt var41 270)))
(assert (= "d" (CharAt var9 478)))
(assert (= "a" (CharAt var6 149)))
(assert (= "H" (CharAt var27 971)))
(assert (= ";" (CharAt var26 800)))
(assert (= "/" (CharAt var25 587)))
(assert (= "\\" (CharAt var54 471)))
(assert (= "7" (CharAt var14 166)))
(assert (= "-" (CharAt var21 687)))
(assert (= "i" (CharAt var49 88)))
(assert (= "h" (CharAt var55 866)))
(assert (= "j" (CharAt var25 263)))
(assert (= "c" (CharAt var15 107)))
(assert (= "*" (CharAt var59 935)))
(assert (= "&" (CharAt var55 30)))
(assert (= ";" (CharAt var2 622)))
(assert (= "d" (CharAt var60 964)))
(assert (= "i" (CharAt var11 569)))
(assert (= "]" (CharAt var13 865)))
(assert (= "m" (CharAt var38 542)))
(assert (= "'" (CharAt var17 451)))
(assert (= "t" (CharAt var24 251)))
(assert (= "," (CharAt var16 504)))
(assert (= "1" (CharAt var6 926)))
(assert (= "0" (CharAt var16 595)))
(assert (= "/" (CharAt var16 541)))
(assert (= "j" (CharAt var19 116)))
(assert (= "<" (CharAt var60 307)))
(assert (= "m" (CharAt var15 695)))
(assert (= "`" (CharAt var0 914)))
(assert (= "}" (CharAt var50 869)))
(assert (= "Q" (CharAt var50 262)))
(assert (= "}" (CharAt var38 635)))
(assert (= "v" (CharAt var44 584)))
(assert (= "j" (CharAt var12 314)))
(assert (= "O" (CharAt var55 4)))
(assert (= "k" (CharAt var26 752)))
(assert (= "r" (CharAt var34 232)))
(assert (= "i" (CharAt var42 886)))
(assert (= "(" (CharAt var13 553)))
(assert (= "_" (CharAt var38 131)))
(assert (= "j" (CharAt var16 153)))
(assert (= "L" (CharAt var40 428)))
(assert (= "9" (CharAt var2 717)))
(assert (= "F" (CharAt var14 288)))
(assert (= "7" (CharAt var39 767)))
(assert (= "T" (CharAt var53 408)))
(assert (= "." (CharAt var49 349)))
(assert (= "R" (CharAt var28 304)))
(assert (= "k" (CharAt var29 368)))
(assert (= "4" (CharAt var10 382)))
(assert (= "-" (CharAt var44 563)))
(assert (= "{" (CharAt var4 309)))
(assert (= "|" (CharAt var24 192)))
(assert (= "B" (CharAt var0 847)))
(assert (= "B" (CharAt var40 664)))
(assert (= "c" (CharAt var5 777)))
(assert (= "b" (CharAt var14 829)))
(assert (= "z" (CharAt var43 485)))
(assert (= "s" (CharAt var0 440)))
(assert (= "P" (CharAt var34 817)))
(assert (= "5" (CharAt var8 662)))
(assert (= "d" (CharAt var59 792)))
(assert (= "\\" (CharAt var57 648)))
(assert (= "Q" (CharAt var32 307)))
(assert (= "K" (CharAt var40 752)))
(assert (= ")" (CharAt var14 705)))
(assert (= "'" (CharAt var12 792)))
(assert (= "X" (CharAt var17 174)))
(assert (= ")" (CharAt var22 108)))
(assert (= ":" (CharAt var40 789)))
(assert (= "F" (CharAt var15 237)))
(assert (= "q" (CharAt var21 638)))
(assert (= "u" (CharAt var41 820)))
(assert (= "/" (CharAt var42 936)))
(assert (= "H" (CharAt var54 788)))
(assert (= ")" (CharAt var0 360)))
(assert (= "d" (CharAt var16 544)))
(assert (= "2" (CharAt var52 769)))
(assert (= "k" (CharAt var1 163)))
(assert (= "1" (CharAt var46 298)))
(assert (= "^" (CharAt var16 907)))
(assert (= "#" (CharAt var20 894)))
(assert (= "," (CharAt var6 118)))
(assert (= "@" (CharAt var7 945)))
(assert (= ":" (CharAt var33 616)))
(assert (= "l" (CharAt var57 793)))
(assert (= "}" (CharAt var52 231)))
(assert (= "l" (CharAt var27 95)))
(assert (= "3" (CharAt var31 523)))
(assert (= "R" (CharAt var36 403)))
(assert (= "\"" (CharAt var58 908)))
(assert (= "X" (CharAt var20 821)))
(assert (= "q" (CharAt var33 636)))
(assert (= "7" (CharAt var30 306)))
(assert (= "l" (CharAt var44 337)))
(assert (= "?" (CharAt var9 737)))
(assert (= "f" (CharAt var45 610)))
(assert (= "j" (CharAt var43 809)))
(assert (= "m" (CharAt var47 150)))
(assert (= "(" (CharAt var9 145)))
(assert (= "I" (CharAt var45 156)))
(assert (= "U" (CharAt var25 178)))
(assert (= "_" (CharAt var11 611)))
(assert (= "R" (CharAt var15 388)))
(assert (= "U" (CharAt var53 716)))
(assert (= "V" (CharAt var28 352)))
(assert (= "a" (CharAt var23 901)))
(assert (= "o" (CharAt var29 533)))
(assert (= "s" (CharAt var60 453)))
(assert (= "6" (CharAt var9 969)))
(assert (= "d" (CharAt var14 590)))
(assert (= "6" (CharAt var35 659)))
(assert (= "R" (CharAt var14 65)))
(assert (= "'" (CharAt var60 464)))
(assert (= "Z" (CharAt var54 730)))
(assert (= "{" (CharAt var15 35)))
(assert (= "m" (CharAt var58 935)))
(assert (= "<" (CharAt var15 200)))
(assert (= "u" (CharAt var17 172)))
(assert (= "2" (CharAt var40 330)))
(assert (= "_" (CharAt var21 345)))
(assert (= "3" (CharAt var2 781)))
(assert (= "r" (CharAt var45 957)))
(assert (= "z" (CharAt var34 257)))
(assert (= "(" (CharAt var3 297)))
(assert (= "E" (CharAt var59 130)))
(assert (= "&" (CharAt var39 151)))
(assert (= "Z" (CharAt var27 527)))
(assert (= "u" (CharAt var21 901)))
(assert (= "D" (CharAt var43 306)))
(assert (= "{" (CharAt var45 383)))
(assert (= "S" (CharAt var14 945)))
(assert (= "D" (CharAt var21 5)))
(assert (= "0" (CharAt var17 815)))
(assert (= "+" (CharAt var50 716)))
(assert (= "I" (CharAt var46 557)))
(assert (= "\\" (CharAt var10 17)))
(assert (= "&" (CharAt var46 547)))
(assert (= "g" (CharAt var56 95)))
(assert (= ">" (CharAt var42 916)))
(assert (= "#" (CharAt var40 501)))
(assert (= "Q" (CharAt var56 610)))
(assert (= "M" (CharAt var40 643)))
(assert (= "n" (CharAt var3 344)))
(assert (= "7" (CharAt var8 972)))
(assert (= "!" (CharAt var37 640)))
(assert (= "\\" (CharAt var13 271)))
(assert (= "_" (CharAt var55 436)))
(assert (= "E" (CharAt var60 584)))
(assert (= "Y" (CharAt var49 742)))
(assert (= "@" (CharAt var7 321)))
(assert (= "u" (CharAt var9 480)))
(assert (= "5" (CharAt var41 279)))
(assert (= "6" (CharAt var23 378)))
(assert (= "`" (CharAt var7 159)))
(assert (= "Z" (CharAt var37 773)))
(assert (= "n" (CharAt var54 941)))
(assert (= "4" (CharAt var41 528)))
(assert (= "y" (CharAt var7 765)))
(assert (= "`" (CharAt var58 656)))
(assert (= "^" (CharAt var43 777)))
(assert (= "[" (CharAt var32 697)))
(assert (= "," (CharAt var34 866)))
(assert (= "." (CharAt var45 164)))
(assert (= "E" (CharAt var60 891)))
(assert (= "'" (CharAt var48 434)))
(assert (= "s" (CharAt var37 335)))
(assert (= "Y" (CharAt var40 22)))
(assert (= "D" (CharAt var41 262)))
(assert (= "\"" (CharAt var9 886)))
(assert (= "y" (CharAt var38 357)))
(assert (= "V" (CharAt var49 616)))
(assert (= "6" (CharAt var13 991)))
(assert (= "d" (CharAt var35 125)))
(assert (= "`" (CharAt var48 795)))
(assert (= "\\" (CharAt var34 634)))
(assert (= "1" (CharAt var5 294)))
(assert (= "u" (CharAt var59 796)))
(assert (= "[" (CharAt var27 586)))
(assert (= "G" (CharAt var48 451)))
(assert (= "+" (CharAt var14 418)))
(assert (= "(" (CharAt var21 403)))
(assert (= "6" (CharAt var15 791)))
(assert (= "&" (CharAt var35 155)))
(assert (= "6" (CharAt var18 815)))
(assert (= "}" (CharAt var45 597)))
(assert (= "6" (CharAt var10 12)))
(assert (= "M" (CharAt var27 690)))
(assert (= "`" (CharAt var54 279)))
(assert (= "C" (CharAt var43 958)))
(assert (= "t" (CharAt var30 541)))
(assert (= "n" (CharAt var8 904)))
(assert (= "P" (CharAt var25 782)))
(assert (= "$" (CharAt var56 620)))
(assert (= "d" (CharAt var19 519)))
(assert (= "o" (CharAt var2 455)))
(assert (= "p" (CharAt var58 622)))
(assert (= "_" (CharAt var26 975)))
(assert (= "0" (CharAt var23 579)))
(assert (= "." (CharAt var41 452)))
(assert (= "." (CharAt var9 911)))
(assert (= "3" (CharAt var36 323)))
(assert (= "\"" (CharAt var2 573)))
(assert (= "t" (CharAt var46 465)))
(assert (= "9" (CharAt var46 568)))
(assert (= "~" (CharAt var52 585)))
(assert (= "," (CharAt var58 673)))
(assert (= "m" (CharAt var42 841)))
(assert (= "u" (CharAt var43 767)))
(assert (= "\"" (CharAt var15 6)))
(assert (= "L" (CharAt var1 274)))
(assert (= "[" (CharAt var23 170)))
(assert (= "P" (CharAt var56 484)))
(assert (= "'" (CharAt var15 609)))
(assert (= "c" (CharAt var16 283)))
(assert (= "X" (CharAt var45 808)))
(assert (= "b" (CharAt var59 964)))
(assert (= ">" (CharAt var33 877)))
(assert (= "h" (CharAt var9 508)))
(assert (= "P" (CharAt var49 891)))
(assert (= "v" (CharAt var17 838)))
(assert (= "-" (CharAt var23 100)))
(assert (= "@" (CharAt var30 534)))
(assert (= "`" (CharAt var25 475)))
(assert (= "5" (CharAt var54 462)))
(assert (= "\\" (CharAt var58 626)))
(assert (= "x" (CharAt var53 279)))
(assert (= "7" (CharAt var9 481)))
(assert (= "1" (CharAt var22 111)))
(assert (= "H" (CharAt var1 701)))
(assert (= "^" (CharAt var13 447)))
(assert (= "6" (CharAt var35 687)))
(assert (= "." (CharAt var26 728)))
(assert (= "v" (CharAt var22 871)))
(assert (= "]" (CharAt var35 12)))
(assert (= "\\" (CharAt var45 934)))
(assert (= "N" (CharAt var14 302)))
(assert (= "j" (CharAt var0 742)))
(assert (= "Q" (CharAt var30 25)))
(assert (= "%" (CharAt var39 953)))
(assert (= "4" (CharAt var7 957)))
(assert (= "s" (CharAt var13 321)))
(assert (= "o" (CharAt var58 711)))
(assert (= "m" (CharAt var32 4)))
(assert (= "i" (CharAt var0 918)))
(assert (= "W" (CharAt var37 774)))
(assert (= "~" (CharAt var10 465)))
(assert (= "P" (CharAt var33 428)))
(assert (= "!" (CharAt var14 273)))
(assert (= "c" (CharAt var41 908)))
(assert (= "\\" (CharAt var17 759)))
(assert (= "J" (CharAt var47 105)))
(assert (= "~" (CharAt var49 524)))
(assert (= "B" (CharAt var21 747)))
(assert (= "U" (CharAt var11 238)))
(assert (= "." (CharAt var17 652)))
(assert (= "P" (CharAt var34 14)))
(assert (= "k" (CharAt var30 825)))
(assert (= "H" (CharAt var39 578)))
(assert (= "*" (CharAt var53 308)))
(assert (= "?" (CharAt var50 120)))
(assert (= "A" (CharAt var20 647)))
(assert (= "\\" (CharAt var9 372)))
(assert (= "u" (CharAt var0 623)))
(assert (= "?" (CharAt var36 217)))
(assert (= "G" (CharAt var2 427)))
(assert (= "M" (CharAt var51 330)))
(assert (= "c" (CharAt var60 824)))
(assert (= ">" (CharAt var45 200)))
(assert (= "!" (CharAt var30 844)))
(assert (= "[" (CharAt var39 472)))
(assert (= ")" (CharAt var34 493)))
(assert (= "-" (CharAt var39 88)))
(assert (= "S" (CharAt var14 88)))
(assert (= "c" (CharAt var35 478)))
(assert (= "." (CharAt var48 707)))
(assert (= "S" (CharAt var53 820)))
(assert (= "d" (CharAt var26 804)))
(assert (= "t" (CharAt var34 256)))
(assert (= "T" (CharAt var35 634)))
(assert (= "8" (CharAt var2 234)))
(assert (= "2" (CharAt var58 496)))
(assert (= "`" (CharAt var1 871)))
(assert (= "T" (CharAt var9 181)))
(assert (= "7" (CharAt var51 7)))
(assert (= "X" (CharAt var46 287)))
(assert (= "*" (CharAt var16 288)))
(assert (= "H" (CharAt var1 715)))
(assert (= "c" (CharAt var26 378)))
(assert (= "O" (CharAt var52 762)))
(assert (= "h" (CharAt var14 881)))
(assert (= "v" (CharAt var53 863)))
(assert (= "Z" (CharAt var35 117)))
(assert (= "S" (CharAt var28 620)))
(assert (= "@" (CharAt var37 548)))
(assert (= "r" (CharAt var17 523)))
(assert (= "g" (CharAt var60 686)))
(assert (= "/" (CharAt var41 0)))
(assert (= "Y" (CharAt var19 993)))
(assert (= "V" (CharAt var0 937)))
(assert (= "J" (CharAt var56 829)))
(assert (= "U" (CharAt var36 184)))
(assert (= "#" (CharAt var18 838)))
(assert (= "b" (CharAt var23 409)))
(assert (= "g" (CharAt var47 519)))
(assert (= "^" (CharAt var48 411)))
(assert (= "d" (CharAt var24 772)))
(assert (= "l" (CharAt var50 250)))
(assert (= "<" (CharAt var5 503)))
(assert (= "'" (CharAt var47 511)))
(assert (= "k" (CharAt var27 665)))
(assert (= "d" (CharAt var52 245)))
(assert (= "e" (CharAt var12 225)))
(assert (= "1" (CharAt var34 808)))
(assert (= ")" (CharAt var11 170)))
(assert (= "L" (CharAt var18 392)))
(assert (= "l" (CharAt var29 373)))
(assert (= "B" (CharAt var6 48)))
(assert (= "@" (CharAt var8 127)))
(assert (= "\\" (CharAt var56 312)))
(assert (= "R" (CharAt var47 488)))
(assert (= "`" (CharAt var3 76)))
(assert (= ";" (CharAt var41 949)))
(assert (= "S" (CharAt var28 335)))
(assert (= "P" (CharAt var44 775)))
(assert (= "X" (CharAt var9 972)))
(assert (= "p" (CharAt var52 71)))
(assert (= "A" (CharAt var0 519)))
(assert (= "a" (CharAt var60 522)))
(assert (= "J" (CharAt var43 815)))
(assert (= "n" (CharAt var38 827)))
(assert (= "}" (CharAt var41 138)))
(assert (= "$" (CharAt var38 378)))
(assert (= "8" (CharAt var15 261)))
(assert (= "N" (CharAt var51 858)))
(assert (= "H" (CharAt var53 72)))
(assert (= "*" (CharAt var56 340)))
(assert (= "C" (CharAt var6 768)))
(assert (= "8" (CharAt var45 906)))
(assert (= "d" (CharAt var32 464)))
(assert (= "M" (CharAt var19 43)))
(assert (= "B" (CharAt var51 168)))
(assert (= "k" (CharAt var29 471)))
(assert (= "|" (CharAt var52 30)))
(assert (= "w" (CharAt var26 702)))
(assert (= "%" (CharAt var39 580)))
(assert (= "?" (CharAt var6 169)))
(assert (= "\"" (CharAt var39 481)))
(assert (= "_" (CharAt var9 133)))
(assert (= "p" (CharAt var4 441)))
(assert (= "|" (CharAt var49 499)))
(assert (= "," (CharAt var52 275)))
(assert (= "n" (CharAt var41 989)))
(assert (= "#" (CharAt var39 215)))
(assert (= "*" (CharAt var57 188)))
(assert (= ":" (CharAt var33 419)))
(assert (= "H" (CharAt var7 175)))
(assert (= "h" (CharAt var13 773)))
(assert (= "@" (CharAt var21 540)))
(assert (= "t" (CharAt var43 302)))
(assert (= "E" (CharAt var13 175)))
(assert (= "'" (CharAt var21 517)))
(assert (= "q" (CharAt var21 709)))
(assert (= "b" (CharAt var27 965)))
(assert (= "d" (CharAt var12 28)))
(assert (= "!" (CharAt var25 295)))
(assert (= "2" (CharAt var50 838)))
(assert (= "`" (CharAt var34 332)))
(assert (= "D" (CharAt var18 506)))
(assert (= "Z" (CharAt var6 125)))
(assert (= "_" (CharAt var23 1)))
(assert (= "*" (CharAt var42 312)))
(assert (= "e" (CharAt var22 451)))
(assert (= "K" (CharAt var19 75)))
(assert (= "s" (CharAt var28 49)))
(assert (= "i" (CharAt var47 436)))
(assert (= "H" (CharAt var5 237)))
(assert (= "N" (CharAt var29 387)))
(assert (= "i" (CharAt var54 753)))
(assert (= "J" (CharAt var34 1)))
(assert (= "@" (CharAt var27 331)))
(assert (= "`" (CharAt var42 601)))
(assert (= "2" (CharAt var36 235)))
(assert (= "A" (CharAt var18 168)))
(assert (= "k" (CharAt var17 414)))
(assert (= "\\" (CharAt var9 800)))
(assert (= "i" (CharAt var38 99)))
(assert (= "v" (CharAt var23 114)))
(assert (= "&" (CharAt var42 650)))
(assert (= "h" (CharAt var22 262)))
(assert (= "X" (CharAt var10 389)))
(assert (= "f" (CharAt var45 686)))
(assert (= "1" (CharAt var31 373)))
(assert (= "|" (CharAt var0 251)))
(assert (= "i" (CharAt var10 774)))
(assert (= "]" (CharAt var2 463)))
(assert (= "G" (CharAt var19 20)))
(assert (= "`" (CharAt var52 912)))
(assert (= "7" (CharAt var18 26)))
(assert (= "@" (CharAt var45 548)))
(assert (= "B" (CharAt var31 899)))
(assert (= "*" (CharAt var4 386)))
(assert (= ":" (CharAt var21 557)))
(assert (= "1" (CharAt var52 999)))
(assert (= "v" (CharAt var15 825)))
(assert (= "i" (CharAt var57 396)))
(assert (= "y" (CharAt var28 724)))
(assert (= "g" (CharAt var4 24)))
(assert (= "x" (CharAt var15 542)))
(assert (= "/" (CharAt var23 230)))
(assert (= "2" (CharAt var35 819)))
(assert (= "m" (CharAt var33 647)))
(assert (= "'" (CharAt var45 346)))
(assert (= ":" (CharAt var18 297)))
(assert (= "Y" (CharAt var12 906)))
(assert (= "z" (CharAt var55 413)))
(assert (= "[" (CharAt var28 371)))
(assert (= "W" (CharAt var37 269)))
(assert (= "." (CharAt var16 835)))
(assert (= "_" (CharAt var55 133)))
(assert (= "Q" (CharAt var41 408)))
(assert (= "v" (CharAt var42 172)))
(assert (= "V" (CharAt var57 64)))
(assert (= "J" (CharAt var26 282)))
(assert (= "9" (CharAt var30 337)))
(assert (= ")" (CharAt var14 902)))
(assert (= "g" (CharAt var16 762)))
(assert (= "b" (CharAt var4 973)))
(assert (= "7" (CharAt var5 226)))
(assert (= "?" (CharAt var55 738)))
(assert (= "7" (CharAt var35 744)))
(assert (= "/" (CharAt var3 8)))
(assert (= "d" (CharAt var39 967)))
(assert (= "C" (CharAt var17 761)))
(assert (= "b" (CharAt var19 532)))
(assert (= "d" (CharAt var45 34)))
(assert (= "o" (CharAt var25 648)))
(assert (= "!" (CharAt var57 630)))
(assert (= "d" (CharAt var30 952)))
(assert (= "w" (CharAt var50 84)))
(assert (= "S" (CharAt var34 466)))
(assert (= "&" (CharAt var1 789)))
(assert (= "g" (CharAt var29 486)))
(assert (= "h" (CharAt var53 970)))
(assert (= "^" (CharAt var33 182)))
(assert (= "v" (CharAt var38 413)))
(assert (= "b" (CharAt var5 349)))
(assert (= "`" (CharAt var12 245)))
(assert (= "m" (CharAt var24 964)))
(assert (= "}" (CharAt var55 64)))
(assert (= "I" (CharAt var25 668)))
(assert (= "+" (CharAt var24 403)))
(assert (= "p" (CharAt var52 193)))
(assert (= ">" (CharAt var8 281)))
(assert (= "9" (CharAt var58 828)))
(assert (= "U" (CharAt var20 593)))
(assert (= "\\" (CharAt var20 185)))
(assert (= "D" (CharAt var10 954)))
(assert (= "W" (CharAt var7 678)))
(assert (= "8" (CharAt var58 668)))
(assert (= ";" (CharAt var38 937)))
(assert (= "P" (CharAt var45 68)))
(assert (= "M" (CharAt var19 242)))
(assert (= "!" (CharAt var42 764)))
(check-sat)